inputs/307.in
10
0 51 25 37 74 91 51 49 75 80 
51 0 33 99 21 66 94 75 66 26 
25 33 0 97 41 43 31 38 32 9 
37 99 97 0 53 0 76 24 21 98 
74 21 41 53 0 94 47 24 58 69 
91 66 43 0 94 0 28 90 0 49 
51 94 31 76 47 28 0 42 58 42 
49 75 38 24 24 90 42 0 84 24 
75 66 32 21 58 0 58 84 0 38 
80 26 9 98 69 49 42 24 38 0 
BBBRRBRRRB
