output/307.out
13 3 47 16 33 14 21 8 7 24 20 11 37 4 32 6 30 31 9 27 23 2 45 28 43 36 42 19 40 10 12 46 48 41 38 22 50 29 44 15 35 5 34 26 25 1 17 49 39 18 
